0 4103
2401 3972
4802 3870
7203 3746
9604 3674
12005 3606
14406 3541
16807 3480
19208 3419
21609 3373
24010 3336
26411 3296
28812 3266
31213 3246
33614 3243
36015 3235
38416 3198
40817 3190
43218 3187
